141701.0
2830
2 3 4 7 8 9 10 11 14 18 19 20 22 24 25 27 29 30 31 32 33 34 35 36 38 39 42 44 46 47 48 49 50 51 52 54 56 58 61 63 64 67 73 75 77 81 82 83 86 87 89 90 91 92 96 98 107 108 109 120 121 122 126 128 129 130 134 135 136 137 139 140 142 143 144 145 146 148 149 150 152 153 154 155 157 158 161 163 164 165 166 167 168 169 170 172 173 174 176 182 184 190 191 192 193 194 196 199 